words_hard_train/97.qaiger
aag 142 24 0 1 118
2
4
8
16
28
36
48
56
70
72
76
80
124
132
146
164
172
186
204
212
226
242
246
248
285
6 2 4
10 4 8
12 5 9
14 11 13
18 15 17
20 14 16
22 19 21
24 6 22
26 25 21
30 13 28
32 12 29
34 31 33
38 35 37
40 34 36
42 39 41
44 27 42
46 45 41
50 33 48
52 32 49
54 51 53
58 55 57
60 54 56
62 59 61
64 46 63
66 47 62
68 65 67
74 71 73
78 74 77
82 79 80
84 78 81
86 83 85
88 69 87
90 26 43
92 75 76
94 93 79
96 70 72
98 97 75
100 7 23
102 101 25
104 98 102
106 95 105
108 91 107
110 108 45
112 104 77
114 111 113
116 89 115
118 68 86
120 117 119
122 67 61
126 53 124
128 52 125
130 127 129
134 131 133
136 130 132
138 135 137
140 122 139
142 123 138
144 141 143
148 85 146
150 84 147
152 149 151
154 145 153
156 121 155
158 144 152
160 157 159
162 143 137
166 129 164
168 128 165
170 167 169
174 171 173
176 170 172
178 175 177
180 162 179
182 163 178
184 181 183
188 151 186
190 150 187
192 189 191
194 185 193
196 161 195
198 184 192
200 197 199
202 183 177
206 169 204
208 168 205
210 207 209
214 211 213
216 210 212
218 215 217
220 202 219
222 203 218
224 221 223
228 191 226
230 190 227
232 229 231
234 224 232
236 200 235
238 225 233
240 237 239
244 240 242
250 246 248
252 247 249
254 251 253
256 254 209
258 255 208
260 257 259
262 223 217
264 261 263
266 260 262
268 265 267
270 268 230
272 244 271
274 269 231
276 275 245
278 273 277
280 241 243
282 280 271
284 279 283
i0 2 y2[0]
i1 2 y1[0]
i2 2 y1[1]
i3 2 y2[1]
i4 2 y1[2]
i5 2 y2[2]
i6 2 y1[3]
i7 2 y2[3]
i8 1 x1[0]
i9 1 x1[1]
i10 1 x1[2]
i11 1 x1[3]
i12 2 y1[4]
i13 2 y2[4]
i14 1 x1[4]
i15 2 y1[5]
i16 2 y2[5]
i17 1 x1[5]
i18 2 y1[6]
i19 2 y2[6]
i20 1 x1[6]
i21 1 x1[7]
i22 2 y2[7]
i23 2 y1[7]
o0 bv[0]
c
simplified
  >
    1 x1
    and
      subtract
        2 y2
        2 y1
      invert
        1
