words_hard_train/97.qaiger.qdimacs
p cnf 142 355
a 35 36 38 40 73 113 121 93 0
e 1 2 3 4 5 6 7 8 9 10 11 12 13 14 15 16 17 18 19 20 21 22 23 24 25 26 27 28 29 30 31 32 33 34 37 39 41 42 43 44 45 46 47 48 49 50 51 52 53 54 55 56 57 58 59 60 61 62 63 64 65 66 67 68 69 70 71 72 74 75 76 77 78 79 80 81 82 83 84 85 86 87 88 89 90 91 92 94 95 96 97 98 99 100 101 102 103 104 105 106 107 108 109 110 111 112 114 115 116 117 118 119 120 122 123 124 125 126 127 128 129 130 131 132 133 134 135 136 137 138 139 140 141 142 0
-1 -2 3 0
1 -3 0
2 -3 0
-2 -4 5 0
2 -5 0
4 -5 0
2 4 6 0
-2 -6 0
-4 -6 0
5 6 7 0
-5 -7 0
-6 -7 0
7 8 9 0
-7 -9 0
-8 -9 0
-7 -8 10 0
7 -10 0
8 -10 0
9 10 11 0
-9 -11 0
-10 -11 0
-3 -11 12 0
3 -12 0
11 -12 0
12 10 13 0
-12 -13 0
-10 -13 0
6 -14 15 0
-6 -15 0
14 -15 0
-6 14 16 0
6 -16 0
-14 -16 0
15 16 17 0
-15 -17 0
-16 -17 0
17 18 19 0
-17 -19 0
-18 -19 0
-17 -18 20 0
17 -20 0
18 -20 0
19 20 21 0
-19 -21 0
-20 -21 0
13 -21 22 0
-13 -22 0
21 -22 0
22 20 23 0
-22 -23 0
-20 -23 0
16 -24 25 0
-16 -25 0
24 -25 0
-16 24 26 0
16 -26 0
-24 -26 0
25 26 27 0
-25 -27 0
-26 -27 0
27 28 29 0
-27 -29 0
-28 -29 0
-27 -28 30 0
27 -30 0
28 -30 0
29 30 31 0
-29 -31 0
-30 -31 0
-23 31 32 0
23 -32 0
-31 -32 0
23 -31 33 0
-23 -33 0
31 -33 0
32 33 34 0
-32 -34 0
-33 -34 0
35 36 37 0
-35 -37 0
-36 -37 0
-37 38 39 0
37 -39 0
-38 -39 0
39 -40 41 0
-39 -41 0
40 -41 0
-39 40 42 0
39 -42 0
-40 -42 0
41 42 43 0
-41 -43 0
-42 -43 0
34 43 44 0
-34 -44 0
-43 -44 0
-13 21 45 0
13 -45 0
-21 -45 0
37 -38 46 0
-37 -46 0
38 -46 0
46 39 47 0
-46 -47 0
-39 -47 0
-35 -36 48 0
35 -48 0
36 -48 0
48 37 49 0
-48 -49 0
-37 -49 0
3 11 50 0
-3 -50 0
-11 -50 0
50 12 51 0
-50 -51 0
-12 -51 0
-49 -51 52 0
49 -52 0
51 -52 0
47 52 53 0
-47 -53 0
-52 -53 0
45 53 54 0
-45 -54 0
-53 -54 0
-54 22 55 0
54 -55 0
-22 -55 0
-52 38 56 0
52 -56 0
-38 -56 0
55 56 57 0
-55 -57 0
-56 -57 0
44 57 58 0
-44 -58 0
-57 -58 0
-34 -43 59 0
34 -59 0
43 -59 0
58 59 60 0
-58 -60 0
-59 -60 0
33 30 61 0
-33 -61 0
-30 -61 0
26 -62 63 0
-26 -63 0
62 -63 0
-26 62 64 0
26 -64 0
-62 -64 0
63 64 65 0
-63 -65 0
-64 -65 0
65 66 67 0
-65 -67 0
-66 -67 0
-65 -66 68 0
65 -68 0
66 -68 0
67 68 69 0
-67 -69 0
-68 -69 0
-61 69 70 0
61 -70 0
-69 -70 0
61 -69 71 0
-61 -71 0
69 -71 0
70 71 72 0
-70 -72 0
-71 -72 0
42 -73 74 0
-42 -74 0
73 -74 0
-42 73 75 0
42 -75 0
-73 -75 0
74 75 76 0
-74 -76 0
-75 -76 0
72 76 77 0
-72 -77 0
-76 -77 0
60 77 78 0
-60 -78 0
-77 -78 0
-72 -76 79 0
72 -79 0
76 -79 0
78 79 80 0
-78 -80 0
-79 -80 0
71 68 81 0
-71 -81 0
-68 -81 0
64 -82 83 0
-64 -83 0
82 -83 0
-64 82 84 0
64 -84 0
-82 -84 0
83 84 85 0
-83 -85 0
-84 -85 0
85 86 87 0
-85 -87 0
-86 -87 0
-85 -86 88 0
85 -88 0
86 -88 0
87 88 89 0
-87 -89 0
-88 -89 0
-81 89 90 0
81 -90 0
-89 -90 0
81 -89 91 0
-81 -91 0
89 -91 0
90 91 92 0
-90 -92 0
-91 -92 0
75 -93 94 0
-75 -94 0
93 -94 0
-75 93 95 0
75 -95 0
-93 -95 0
94 95 96 0
-94 -96 0
-95 -96 0
92 96 97 0
-92 -97 0
-96 -97 0
80 97 98 0
-80 -98 0
-97 -98 0
-92 -96 99 0
92 -99 0
96 -99 0
98 99 100 0
-98 -100 0
-99 -100 0
91 88 101 0
-91 -101 0
-88 -101 0
84 -102 103 0
-84 -103 0
102 -103 0
-84 102 104 0
84 -104 0
-102 -104 0
103 104 105 0
-103 -105 0
-104 -105 0
105 106 107 0
-105 -107 0
-106 -107 0
-105 -106 108 0
105 -108 0
106 -108 0
107 108 109 0
-107 -109 0
-108 -109 0
-101 109 110 0
101 -110 0
-109 -110 0
101 -109 111 0
-101 -111 0
109 -111 0
110 111 112 0
-110 -112 0
-111 -112 0
95 -113 114 0
-95 -114 0
113 -114 0
-95 113 115 0
95 -115 0
-113 -115 0
114 115 116 0
-114 -116 0
-115 -116 0
-112 -116 117 0
112 -117 0
116 -117 0
-100 117 118 0
100 -118 0
-117 -118 0
112 116 119 0
-112 -119 0
-116 -119 0
118 119 120 0
-118 -120 0
-119 -120 0
-120 -121 122 0
120 -122 0
121 -122 0
-123 -124 125 0
123 -125 0
124 -125 0
123 124 126 0
-123 -126 0
-124 -126 0
125 126 127 0
-125 -127 0
-126 -127 0
-127 104 128 0
127 -128 0
-104 -128 0
127 -104 129 0
-127 -129 0
104 -129 0
128 129 130 0
-128 -130 0
-129 -130 0
111 108 131 0
-111 -131 0
-108 -131 0
130 131 132 0
-130 -132 0
-131 -132 0
-130 -131 133 0
130 -133 0
131 -133 0
132 133 134 0
-132 -134 0
-133 -134 0
-134 -115 135 0
134 -135 0
115 -135 0
-122 135 136 0
122 -136 0
-135 -136 0
134 115 137 0
-134 -137 0
-115 -137 0
137 122 138 0
-137 -138 0
-122 -138 0
136 138 139 0
-136 -139 0
-138 -139 0
120 121 140 0
-120 -140 0
-121 -140 0
-140 135 141 0
140 -141 0
-135 -141 0
139 141 142 0
-139 -142 0
-141 -142 0
-142 0
